c Random Network
p max    10      20
n         1  s
n        10  t
a       6       9      36
a       4      10      35
a       8       1       9
a      10       6      50
a       1       2      14
a      10       1      40
a       1       7      18
a       1       9      36
a       2       6      36
a       1       6      11
a       2       3      47
a       6       2      17
a       4       2      30
a      10       3      47
a       3      10      23
a       2      10      33
a       4       1      32
a       4       8      45
a       1       8      47
a       9       6       6
